38531 39683 
37429 40202 
37817 40011 
38057 39885 
36821 40355 
36389 40462 
35270 40721 
36540 40398 
35393 40692 
36944 40304 
36512 40411 
35605 40685 
36037 40578 
37082 40257 
36175 40531 
34177 40954 
34300 40925 
38310 39756 
34997 40838 
35743 40638 
36650 40364 
